c Standarized MaxSat Instance
c{
c "sha1sum": "0273aa9da2432cd611079fe245210379fd2fc06c",
c "nvars": 108,
c "ncls": 1276,
c "nhards": 37,
c "nhard_len_stats":
c    { "min": 2, "max": 4, "ave": 2.92,
c      "stddev": 0.82 },
c "nsofts": 1239,
c "nsoft_len_stats":
c    { "min": 1, "max": 4, "ave": 3.65,
c      "stddev": 0.72 },
c "nsoft_wts": 1050,
c "soft_wt_stats":
c    { "min": 2, "max": 14008, "ave": 1762.30,
c      "stddev": 1355.72 }
c}
c------------------------------------------------------------
c 1 G='a'
c 2 G='b'
c 3 G='c'
c 4 E='a'
c 5 E='b'
c 6 E='c'
c 7 T='a'
c 8 T='b'
c 9 T='c'
c 10 T='d'
c 11 MB='a'
c 12 MB='b'
c 13 A='a'
c 14 A='b'
c 15 A='c'
c 16 A='d'
c 17 KB='a'
c 18 KB='b'
c 19 KB='c'
c 20 KB='d'
c 21 M='a'
c 22 M='b'
c 23 M='c'
c 24 M='d'
c 25 Z='a'
c 26 Z='b'
c 27 Z='c'
c 28 X='a'
c 29 X='b'
c 30 X='c'
c 31 X='d'
c 32 B='a'
c 33 B='b'
c 34 B='c'
c 35 B='d'
c 36 P='a'
c 37 P='b'
c 38 P='c'
c 39 AB='a'
c 40 AB='b'
c 41 AB='c'
c 42 C='a'
c 43 C='b'
c 44 BB='a'
c 45 BB='b'
c 46 D='a'
c 47 D='b'
c 48 CB='a'
c 49 CB='b'
c 50 DB='a'
c 51 DB='b'
c 52 F='a'
c 53 F='b'
c 54 EB='a'
c 55 EB='b'
c 56 EB='c'
c 57 EB='d'
c 58 H='a'
c 59 H='b'
c 60 H='c'
c 61 FB='a'
c 62 FB='b'
c 63 FB='c'
c 64 FB='d'
c 65 I='a'
c 66 I='b'
c 67 I='c'
c 68 I='d'
c 69 GB='a'
c 70 GB='b'
c 71 J='a'
c 72 J='b'
c 73 J='c'
c 74 HB='a'
c 75 HB='b'
c 76 K='a'
c 77 K='b'
c 78 K='c'
c 79 IB='a'
c 80 IB='b'
c 81 IB='c'
c 82 IB='d'
c 83 L='a'
c 84 L='b'
c 85 JB='a'
c 86 JB='b'
c 87 JB='c'
c 88 N='a'
c 89 N='b'
c 90 N='c'
c 91 O='a'
c 92 O='b'
c 93 O='c'
c 94 Q='a'
c 95 Q='b'
c 96 Q='c'
c 97 R='a'
c 98 R='b'
c 99 R='c'
c 100 R='d'
c 101 S='a'
c 102 S='b'
c 103 U='a'
c 104 U='b'
c 105 V='a'
c 106 V='b'
c 107 W='a'
c 108 W='b'
c e Y='b'
c e NB='c'
c e LB='a'
p wcnf 108 1276 2183485
2650 -1 0
1890 -2 0
809 -3 0
3701 -4 0
1846 -5 0
633 -6 0
3819 -7 0
625 -8 0
5558 -9 0
1945 -10 0
191 -11 0
3010 -12 0
3687 -13 0
1716 -14 0
1265 -15 0
2308 -16 0
3885 -17 0
1848 -18 0
2271 -19 0
1160 -20 0
2146 -21 0
1720 -22 0
1134 -23 0
6064 -24 0
4305 -25 0
14008 -26 0
75 -27 0
1298 -11 -28 0
4300 -11 -29 0
2574 -11 -30 0
1416 -11 -31 0
1259 -12 -28 0
1981 -12 -29 0
4059 -12 -30 0
1895 -12 -31 0
1008 -11 0
2516 -12 0
1488 -13 -32 0
1383 -13 -33 0
5100 -13 -34 0
2114 -13 -35 0
3309 -14 -32 0
1616 -14 -33 0
2918 -14 -34 0
1183 -14 -35 0
2686 -15 -32 0
1749 -15 -33 0
948 -15 -34 0
5123 -15 -35 0
1419 -16 -32 0
2484 -16 -33 0
1968 -16 -34 0
2384 -16 -35 0
3171 -21 -36 0
674 -21 -37 0
1931 -21 -38 0
1624 -22 -36 0
2597 -22 -37 0
971 -22 -38 0
1720 -23 -36 0
2414 -23 -37 0
975 -23 -38 0
1836 -24 -36 0
7224 -24 -37 0
488 -24 -38 0
1073 -28 -39 0
1688 -28 -40 0
2224 -28 -41 0
2467 -29 -39 0
762 -29 -40 0
2124 -29 -41 0
1150 -30 -39 0
2611 -30 -40 0
1374 -30 -41 0
3972 -31 -39 0
2378 -31 -40 0
427 -31 -41 0
3991 -32 -13 -42 0
94 -32 -13 -43 0
2728 -32 -14 -42 0
236 -32 -14 -43 0
1273 -32 -15 -42 0
770 -32 -15 -43 0
453 -32 -16 -42 0
1892 -32 -16 -43 0
511 -33 -13 -42 0
1745 -33 -13 -43 0
9524 -33 -14 -42 0
2 -33 -14 -43 0
1029 -33 -15 -42 0
971 -33 -15 -43 0
1338 -33 -16 -42 0
726 -33 -16 -43 0
1322 -34 -13 -42 0
737 -34 -13 -43 0
740 -34 -14 -42 0
1318 -34 -14 -43 0
83 -34 -15 -42 0
4157 -34 -15 -43 0
1490 -34 -16 -42 0
635 -34 -16 -43 0
1378 -35 -13 -42 0
701 -35 -13 -43 0
896 -35 -14 -42 0
1112 -35 -14 -43 0
1551 -35 -15 -42 0
602 -35 -15 -43 0
2294 -35 -16 -42 0
329 -35 -16 -43 0
1035 -39 -44 0
966 -39 -45 0
3792 -40 -44 0
108 -40 -45 0
305 -41 -44 0
2393 -41 -45 0
1048 -32 -13 -42 -46 0
953 -32 -13 -42 -47 0
1933 -32 -13 -43 -46 0
438 -32 -13 -43 -47 0
672 -32 -14 -42 -46 0
1425 -32 -14 -42 -47 0
1407 -32 -14 -43 -46 0
683 -32 -14 -43 -47 0
545 -32 -15 -42 -46 0
1669 -32 -15 -42 -47 0
510 -32 -15 -43 -46 0
1747 -32 -15 -43 -47 0
856 -32 -16 -42 -46 0
1160 -32 -16 -42 -47 0
68 -32 -16 -43 -46 0
4435 -32 -16 -43 -47 0
2285 -33 -13 -42 -46 0
331 -33 -13 -42 -47 0
456 -33 -13 -43 -46 0
1884 -33 -13 -43 -47 0
786 -33 -14 -42 -46 0
1251 -33 -14 -42 -47 0
2097 -33 -14 -43 -46 0
384 -33 -14 -43 -47 0
516 -33 -15 -42 -46 0
1733 -33 -15 -42 -47 0
940 -33 -15 -43 -46 0
1062 -33 -15 -43 -47 0
715 -33 -16 -42 -46 0
1355 -33 -16 -42 -47 0
1308 -33 -16 -43 -46 0
746 -33 -16 -43 -47 0
131 -34 -13 -42 -46 0
3530 -34 -13 -42 -47 0
981 -34 -13 -43 -46 0
1019 -34 -13 -43 -47 0
908 -34 -14 -42 -46 0
1098 -34 -14 -42 -47 0
2002 -34 -14 -43 -46 0
414 -34 -14 -43 -47 0
234 -34 -15 -42 -46 0
2741 -34 -15 -42 -47 0
889 -34 -15 -43 -46 0
1120 -34 -15 -43 -47 0
1695 -34 -16 -42 -46 0
533 -34 -16 -42 -47 0
904 -34 -16 -43 -46 0
1103 -34 -16 -43 -47 0
2827 -35 -13 -42 -46 0
219 -35 -13 -42 -47 0
913 -35 -13 -43 -46 0
1093 -35 -13 -43 -47 0
327 -35 -14 -42 -46 0
2303 -35 -14 -42 -47 0
296 -35 -14 -43 -46 0
2428 -35 -14 -43 -47 0
544 -35 -15 -42 -46 0
1671 -35 -15 -42 -47 0
709 -35 -15 -43 -46 0
1364 -35 -15 -43 -47 0
1132 -35 -16 -42 -46 0
879 -35 -16 -42 -47 0
1146 -35 -16 -43 -46 0
868 -35 -16 -43 -47 0
1258 -39 -25 -44 -48 0
781 -39 -25 -44 -49 0
634 -39 -25 -45 -48 0
1491 -39 -25 -45 -49 0
787 -39 -26 -44 -48 0
1250 -39 -26 -44 -49 0
1026 -39 -26 -45 -48 0
974 -39 -26 -45 -49 0
670 -39 -27 -44 -48 0
1428 -39 -27 -44 -49 0
834 -39 -27 -45 -48 0
1187 -39 -27 -45 -49 0
1104 -40 -25 -44 -48 0
903 -40 -25 -44 -49 0
257 -40 -25 -45 -48 0
2615 -40 -25 -45 -49 0
2576 -40 -26 -44 -48 0
265 -40 -26 -44 -49 0
908 -40 -26 -45 -48 0
1098 -40 -26 -45 -49 0
2099 -40 -27 -44 -48 0
384 -40 -27 -44 -49 0
1303 -40 -27 -45 -48 0
750 -40 -27 -45 -49 0
3898 -41 -25 -44 -48 0
100 -41 -25 -44 -49 0
2828 -41 -25 -45 -48 0
219 -41 -25 -45 -49 0
974 -41 -26 -44 -48 0
1027 -41 -26 -44 -49 0
544 -41 -26 -45 -48 0
1670 -41 -26 -45 -49 0
374 -41 -27 -44 -48 0
2132 -41 -27 -44 -49 0
3606 -41 -27 -45 -48 0
124 -41 -27 -45 -49 0
631 -44 -50 0
1497 -44 -51 0
1574 -45 -50 0
591 -45 -51 0
790 -46 -4 -42 -52 0
1247 -46 -4 -42 -53 0
290 -46 -4 -43 -52 0
2457 -46 -4 -43 -53 0
3834 -46 -5 -42 -52 0
105 -46 -5 -42 -53 0
723 -46 -5 -43 -52 0
1344 -46 -5 -43 -53 0
917 -46 -6 -42 -52 0
1088 -46 -6 -42 -53 0
853 -46 -6 -43 -52 0
1164 -46 -6 -43 -53 0
1889 -47 -4 -42 -52 0
454 -47 -4 -42 -53 0
2119 -47 -4 -43 -52 0
377 -47 -4 -43 -53 0
1935 -47 -5 -42 -52 0
437 -47 -5 -42 -53 0
2820 -47 -5 -43 -52 0
220 -47 -5 -43 -53 0
2373 -47 -6 -42 -52 0
310 -47 -6 -42 -53 0
1352 -47 -6 -43 -52 0
717 -47 -6 -43 -53 0
2146 -48 -44 -50 -54 0
1773 -48 -44 -50 -55 0
3716 -48 -44 -50 -56 0
1302 -48 -44 -50 -57 0
2795 -48 -44 -51 -54 0
1893 -48 -44 -51 -55 0
2106 -48 -44 -51 -56 0
1497 -48 -44 -51 -57 0
1599 -48 -45 -50 -54 0
1633 -48 -45 -50 -55 0
3501 -48 -45 -50 -56 0
1948 -48 -45 -50 -57 0
1123 -48 -45 -51 -54 0
4272 -48 -45 -51 -55 0
1696 -48 -45 -51 -56 0
2471 -48 -45 -51 -57 0
1472 -49 -44 -50 -54 0
5305 -49 -44 -50 -55 0
2669 -49 -44 -50 -56 0
1130 -49 -44 -50 -57 0
2231 -49 -44 -51 -54 0
2868 -49 -44 -51 -55 0
1454 -49 -44 -51 -56 0
1811 -49 -44 -51 -57 0
1477 -49 -45 -50 -54 0
2166 -49 -45 -50 -55 0
1769 -49 -45 -50 -56 0
3005 -49 -45 -50 -57 0
987 -49 -45 -51 -54 0
2966 -49 -45 -51 -55 0
1462 -49 -45 -51 -56 0
7754 -49 -45 -51 -57 0
1071 -1 -52 -4 -58 0
2216 -1 -52 -4 -59 0
1696 -1 -52 -4 -60 0
2950 -1 -52 -5 -58 0
1108 -1 -52 -5 -59 0
1299 -1 -52 -5 -60 0
2550 -1 -52 -6 -58 0
1207 -1 -52 -6 -59 0
1336 -1 -52 -6 -60 0
4545 -1 -53 -4 -58 0
2339 -1 -53 -4 -59 0
397 -1 -53 -4 -60 0
4642 -1 -53 -5 -58 0
1271 -1 -53 -5 -59 0
874 -1 -53 -5 -60 0
1206 -1 -53 -6 -58 0
2012 -1 -53 -6 -59 0
1650 -1 -53 -6 -60 0
1781 -2 -52 -4 -58 0
1259 -2 -52 -4 -59 0
1780 -2 -52 -4 -60 0
1904 -2 -52 -5 -58 0
2972 -2 -52 -5 -59 0
724 -2 -52 -5 -60 0
3494 -2 -52 -6 -58 0
1060 -2 -52 -6 -59 0
1212 -2 -52 -6 -60 0
1976 -2 -53 -4 -58 0
2701 -2 -53 -4 -59 0
757 -2 -53 -4 -60 0
862 -2 -53 -5 -58 0
4083 -2 -53 -5 -59 0
1356 -2 -53 -5 -60 0
5618 -2 -53 -6 -58 0
2427 -2 -53 -6 -59 0
333 -2 -53 -6 -60 0
981 -3 -52 -4 -58 0
5973 -3 -52 -4 -59 0
1067 -3 -52 -4 -60 0
3626 -3 -52 -5 -58 0
1092 -3 -52 -5 -59 0
1152 -3 -52 -5 -60 0
4719 -3 -52 -6 -58 0
1228 -3 -52 -6 -59 0
902 -3 -52 -6 -60 0
2246 -3 -53 -4 -58 0
2411 -3 -53 -4 -59 0
734 -3 -53 -4 -60 0
1046 -3 -53 -5 -58 0
1134 -3 -53 -5 -59 0
4055 -3 -53 -5 -60 0
2000 -3 -53 -6 -58 0
2296 -3 -53 -6 -59 0
872 -3 -53 -6 -60 0
1917 -50 -54 -61 0
1884 -50 -54 -62 0
1887 -50 -54 -63 0
2366 -50 -54 -64 0
1691 -50 -55 -61 0
1677 -50 -55 -62 0
2730 -50 -55 -63 0
2140 -50 -55 -64 0
3428 -50 -56 -61 0
1320 -50 -56 -62 0
1231 -50 -56 -63 0
3638 -50 -56 -64 0
2007 -50 -57 -61 0
2596 -50 -57 -62 0
1587 -50 -57 -63 0
1983 -50 -57 -64 0
2587 -51 -54 -61 0
2220 -51 -54 -62 0
716 -51 -54 -63 0
6617 -51 -54 -64 0
2243 -51 -55 -61 0
1495 -51 -55 -62 0
2116 -51 -55 -63 0
2297 -51 -55 -64 0
4588 -51 -56 -61 0
2786 -51 -56 -62 0
1150 -51 -56 -63 0
1463 -51 -56 -64 0
1557 -51 -57 -61 0
1722 -51 -57 -62 0
2269 -51 -57 -63 0
2742 -51 -57 -64 0
1901 -1 -52 -58 -65 0
3142 -1 -52 -58 -66 0
1774 -1 -52 -58 -67 0
1615 -1 -52 -58 -68 0
1636 -1 -52 -59 -65 0
3186 -1 -52 -59 -66 0
1410 -1 -52 -59 -67 0
2381 -1 -52 -59 -68 0
3179 -1 -52 -60 -65 0
2128 -1 -52 -60 -66 0
1468 -1 -52 -60 -67 0
1740 -1 -52 -60 -68 0
1580 -1 -53 -58 -65 0
4621 -1 -53 -58 -66 0
1002 -1 -53 -58 -67 0
2994 -1 -53 -58 -68 0
2927 -1 -53 -59 -65 0
3132 -1 -53 -59 -66 0
1615 -1 -53 -59 -67 0
1224 -1 -53 -59 -68 0
3224 -1 -53 -60 -65 0
1596 -1 -53 -60 -66 0
1097 -1 -53 -60 -67 0
3400 -1 -53 -60 -68 0
1997 -2 -52 -58 -65 0
1347 -2 -52 -58 -66 0
1979 -2 -52 -58 -67 0
3282 -2 -52 -58 -68 0
2531 -2 -52 -59 -65 0
2739 -2 -52 -59 -66 0
1826 -2 -52 -59 -67 0
1339 -2 -52 -59 -68 0
2794 -2 -52 -60 -65 0
2569 -2 -52 -60 -66 0
1105 -2 -52 -60 -67 0
2169 -2 -52 -60 -68 0
1785 -2 -53 -58 -65 0
1828 -2 -53 -58 -66 0
2218 -2 -53 -58 -67 0
2229 -2 -53 -58 -68 0
2487 -2 -53 -59 -65 0
1281 -2 -53 -59 -66 0
1658 -2 -53 -59 -67 0
3423 -2 -53 -59 -68 0
863 -2 -53 -60 -65 0
3491 -2 -53 -60 -66 0
4193 -2 -53 -60 -67 0
1706 -2 -53 -60 -68 0
1698 -3 -52 -58 -65 0
2106 -3 -52 -58 -66 0
2147 -3 -52 -58 -67 0
2097 -3 -52 -58 -68 0
1937 -3 -52 -59 -65 0
1954 -3 -52 -59 -66 0
1644 -3 -52 -59 -67 0
2638 -3 -52 -59 -68 0
5085 -3 -52 -60 -65 0
632 -3 -52 -60 -66 0
2526 -3 -52 -60 -67 0
2722 -3 -52 -60 -68 0
1775 -3 -53 -58 -65 0
2530 -3 -53 -58 -66 0
1793 -3 -53 -58 -67 0
2024 -3 -53 -58 -68 0
1715 -3 -53 -59 -65 0
2854 -3 -53 -59 -66 0
1852 -3 -53 -59 -67 0
1837 -3 -53 -59 -68 0
1329 -3 -53 -60 -65 0
1546 -3 -53 -60 -66 0
4697 -3 -53 -60 -67 0
2179 -3 -53 -60 -68 0
536 -50 -54 -61 -69 0
1688 -50 -54 -61 -70 0
283 -50 -54 -62 -69 0
2488 -50 -54 -62 -70 0
5194 -50 -54 -63 -69 0
40 -50 -54 -63 -70 0
573 -50 -54 -64 -69 0
1610 -50 -54 -64 -70 0
187 -50 -55 -61 -69 0
3041 -50 -55 -61 -70 0
424 -50 -55 -62 -69 0
1974 -50 -55 -62 -70 0
1357 -50 -55 -63 -69 0
714 -50 -55 -63 -70 0
1416 -50 -55 -64 -69 0
677 -50 -55 -64 -70 0
1602 -50 -56 -61 -69 0
576 -50 -56 -61 -70 0
1056 -50 -56 -62 -69 0
947 -50 -56 -62 -70 0
1161 -50 -56 -63 -69 0
855 -50 -56 -63 -70 0
267 -50 -56 -64 -69 0
2567 -50 -56 -64 -70 0
1695 -50 -57 -61 -69 0
533 -50 -57 -61 -70 0
552 -50 -57 -62 -69 0
1654 -50 -57 -62 -70 0
47 -50 -57 -63 -69 0
4957 -50 -57 -63 -70 0
272 -50 -57 -64 -69 0
2539 -50 -57 -64 -70 0
3177 -51 -54 -61 -69 0
169 -51 -54 -61 -70 0
1288 -51 -54 -62 -69 0
760 -51 -54 -62 -70 0
1128 -51 -54 -63 -69 0
882 -51 -54 -63 -70 0
1912 -51 -54 -64 -69 0
446 -51 -54 -64 -70 0
2975 -51 -55 -61 -69 0
196 -51 -55 -61 -70 0
524 -51 -55 -62 -69 0
1716 -51 -55 -62 -70 0
1000 -51 -55 -63 -69 0
1000 -51 -55 -63 -70 0
122 -51 -55 -64 -69 0
3626 -51 -55 -64 -70 0
725 -51 -56 -61 -69 0
1340 -51 -56 -61 -70 0
614 -51 -56 -62 -69 0
1528 -51 -56 -62 -70 0
169 -51 -56 -63 -69 0
3180 -51 -56 -63 -70 0
548 -51 -56 -64 -69 0
1662 -51 -56 -64 -70 0
846 -51 -57 -61 -69 0
1173 -51 -57 -61 -70 0
948 -51 -57 -62 -69 0
1054 -51 -57 -62 -70 0
2007 -51 -57 -63 -69 0
413 -51 -57 -63 -70 0
1045 -51 -57 -64 -69 0
956 -51 -57 -64 -70 0
724 -1 -65 -58 -71 0
4951 -1 -65 -58 -72 0
1465 -1 -65 -58 -73 0
3147 -1 -65 -59 -71 0
1528 -1 -65 -59 -72 0
888 -1 -65 -59 -73 0
2443 -1 -65 -60 -71 0
803 -1 -65 -60 -72 0
2042 -1 -65 -60 -73 0
1264 -1 -66 -58 -71 0
2338 -1 -66 -58 -72 0
1374 -1 -66 -58 -73 0
1496 -1 -66 -59 -71 0
1894 -1 -66 -59 -72 0
1410 -1 -66 -59 -73 0
620 -1 -66 -60 -71 0
1600 -1 -66 -60 -72 0
5671 -1 -66 -60 -73 0
791 -1 -67 -58 -71 0
2084 -1 -67 -58 -72 0
2425 -1 -67 -58 -73 0
2355 -1 -67 -59 -71 0
1001 -1 -67 -59 -72 0
1714 -1 -67 -59 -73 0
1156 -1 -67 -60 -71 0
4293 -1 -67 -60 -72 0
999 -1 -67 -60 -73 0
388 -1 -68 -58 -71 0
2885 -1 -68 -58 -72 0
3318 -1 -68 -58 -73 0
2926 -1 -68 -59 -71 0
1173 -1 -68 -59 -72 0
1235 -1 -68 -59 -73 0
1813 -1 -68 -60 -71 0
3919 -1 -68 -60 -72 0
623 -1 -68 -60 -73 0
1131 -2 -65 -58 -71 0
936 -2 -65 -58 -72 0
5613 -2 -65 -58 -73 0
751 -2 -65 -59 -71 0
2219 -2 -65 -59 -72 0
2387 -2 -65 -59 -73 0
2197 -2 -65 -60 -71 0
1240 -2 -65 -60 -72 0
1480 -2 -65 -60 -73 0
6365 -2 -66 -58 -71 0
732 -2 -66 -58 -72 0
1373 -2 -66 -58 -73 0
1391 -2 -66 -59 -71 0
1182 -2 -66 -59 -72 0
2491 -2 -66 -59 -73 0
2582 -2 -66 -60 -71 0
2191 -2 -66 -60 -72 0
704 -2 -66 -60 -73 0
2084 -2 -67 -58 -71 0
1106 -2 -67 -58 -72 0
1739 -2 -67 -58 -73 0
867 -2 -67 -59 -71 0
3208 -2 -67 -59 -72 0
1542 -2 -67 -59 -73 0
928 -2 -67 -60 -71 0
1693 -2 -67 -60 -72 0
2598 -2 -67 -60 -73 0
1769 -2 -68 -58 -71 0
1502 -2 -68 -58 -72 0
1500 -2 -68 -58 -73 0
2232 -2 -68 -59 -71 0
1367 -2 -68 -59 -72 0
1323 -2 -68 -59 -73 0
7003 -2 -68 -60 -71 0
1671 -2 -68 -60 -72 0
560 -2 -68 -60 -73 0
2222 -3 -65 -58 -71 0
2357 -3 -65 -58 -72 0
760 -3 -65 -58 -73 0
2027 -3 -65 -59 -71 0
1716 -3 -65 -59 -72 0
1151 -3 -65 -59 -73 0
812 -3 -65 -60 -71 0
2027 -3 -65 -60 -72 0
2436 -3 -65 -60 -73 0
2479 -3 -66 -58 -71 0
1844 -3 -66 -58 -72 0
883 -3 -66 -58 -73 0
4272 -3 -66 -59 -71 0
1661 -3 -66 -59 -72 0
662 -3 -66 -59 -73 0
1132 -3 -66 -60 -71 0
916 -3 -66 -60 -72 0
6190 -3 -66 -60 -73 0
2591 -3 -67 -58 -71 0
4805 -3 -67 -58 -72 0
325 -3 -67 -58 -73 0
774 -3 -67 -59 -71 0
7444 -3 -67 -59 -72 0
1288 -3 -67 -59 -73 0
2030 -3 -67 -60 -71 0
2111 -3 -67 -60 -72 0
933 -3 -67 -60 -73 0
1795 -3 -68 -58 -71 0
4382 -3 -68 -58 -72 0
591 -3 -68 -58 -73 0
772 -3 -68 -59 -71 0
2490 -3 -68 -59 -72 0
2081 -3 -68 -59 -73 0
1479 -3 -68 -60 -71 0
1930 -3 -68 -60 -72 0
1400 -3 -68 -60 -73 0
713 -69 -54 -61 -74 0
1359 -69 -54 -61 -75 0
1213 -69 -54 -62 -74 0
815 -69 -54 -62 -75 0
722 -69 -54 -63 -74 0
1344 -69 -54 -63 -75 0
1920 -69 -54 -64 -74 0
443 -69 -54 -64 -75 0
670 -69 -55 -61 -74 0
1429 -69 -55 -61 -75 0
529 -69 -55 -62 -74 0
1703 -69 -55 -62 -75 0
852 -69 -55 -63 -74 0
1165 -69 -55 -63 -75 0
1079 -69 -55 -64 -74 0
925 -69 -55 -64 -75 0
1107 -69 -56 -61 -74 0
900 -69 -56 -61 -75 0
1008 -69 -56 -62 -74 0
992 -69 -56 -62 -75 0
2686 -69 -56 -63 -74 0
244 -69 -56 -63 -75 0
556 -69 -56 -64 -74 0
1644 -69 -56 -64 -75 0
1546 -69 -57 -61 -74 0
605 -69 -57 -61 -75 0
1142 -69 -57 -62 -74 0
870 -69 -57 -62 -75 0
6073 -69 -57 -63 -74 0
22 -69 -57 -63 -75 0
787 -69 -57 -64 -74 0
1251 -69 -57 -64 -75 0
480 -70 -54 -61 -74 0
1821 -70 -54 -61 -75 0
104 -70 -54 -62 -74 0
3844 -70 -54 -62 -75 0
2936 -70 -54 -63 -74 0
202 -70 -54 -63 -75 0
843 -70 -54 -64 -74 0
1176 -70 -54 -64 -75 0
236 -70 -55 -61 -74 0
2729 -70 -55 -61 -75 0
3487 -70 -55 -62 -74 0
135 -70 -55 -62 -75 0
160 -70 -55 -63 -74 0
3250 -70 -55 -63 -75 0
954 -70 -55 -64 -74 0
1047 -70 -55 -64 -75 0
432 -70 -56 -61 -74 0
1949 -70 -56 -61 -75 0
172 -70 -56 -62 -74 0
3156 -70 -56 -62 -75 0
34 -70 -56 -63 -74 0
5410 -70 -56 -63 -75 0
176 -70 -56 -64 -74 0
3124 -70 -56 -64 -75 0
320 -70 -57 -61 -74 0
2331 -70 -57 -61 -75 0
444 -70 -57 -62 -74 0
1916 -70 -57 -62 -75 0
1232 -70 -57 -63 -74 0
800 -70 -57 -63 -75 0
88 -70 -57 -64 -74 0
4079 -70 -57 -64 -75 0
1004 -71 -76 0
1438 -71 -77 0
2921 -71 -78 0
1041 -72 -76 0
1096 -72 -77 0
4437 -72 -78 0
847 -73 -76 0
2442 -73 -77 0
1944 -73 -78 0
1578 -74 -79 0
1819 -74 -80 0
3125 -74 -81 0
1905 -74 -82 0
3723 -75 -79 0
2042 -75 -80 0
1054 -75 -81 0
2323 -75 -82 0
1153 -65 -71 -76 -83 0
862 -65 -71 -76 -84 0
391 -65 -71 -77 -83 0
2073 -65 -71 -77 -84 0
6962 -65 -71 -78 -83 0
12 -65 -71 -78 -84 0
1137 -65 -72 -76 -83 0
875 -65 -72 -76 -84 0
1389 -65 -72 -77 -83 0
694 -65 -72 -77 -84 0
1032 -65 -72 -78 -83 0
969 -65 -72 -78 -84 0
970 -65 -73 -76 -83 0
1030 -65 -73 -76 -84 0
1194 -65 -73 -77 -83 0
829 -65 -73 -77 -84 0
1367 -65 -73 -78 -83 0
707 -65 -73 -78 -84 0
303 -66 -71 -76 -83 0
2400 -66 -71 -76 -84 0
1111 -66 -71 -77 -83 0
897 -66 -71 -77 -84 0
3565 -66 -71 -78 -83 0
127 -66 -71 -78 -84 0
410 -66 -72 -76 -83 0
2016 -66 -72 -76 -84 0
2975 -66 -72 -77 -83 0
196 -66 -72 -77 -84 0
4396 -66 -72 -78 -83 0
70 -66 -72 -78 -84 0
1270 -66 -73 -76 -83 0
772 -66 -73 -76 -84 0
909 -66 -73 -77 -83 0
1098 -66 -73 -77 -84 0
806 -66 -73 -78 -83 0
1224 -66 -73 -78 -84 0
708 -67 -71 -76 -83 0
1366 -67 -71 -76 -84 0
1113 -67 -71 -77 -83 0
895 -67 -71 -77 -84 0
1322 -67 -71 -78 -83 0
737 -67 -71 -78 -84 0
1311 -67 -72 -76 -83 0
744 -67 -72 -76 -84 0
594 -67 -72 -77 -83 0
1566 -67 -72 -77 -84 0
981 -67 -72 -78 -83 0
1020 -67 -72 -78 -84 0
347 -67 -73 -76 -83 0
2225 -67 -73 -76 -84 0
698 -67 -73 -77 -83 0
1382 -67 -73 -77 -84 0
2912 -67 -73 -78 -83 0
206 -67 -73 -78 -84 0
820 -68 -71 -76 -83 0
1206 -68 -71 -76 -84 0
644 -68 -71 -77 -83 0
1473 -68 -71 -77 -84 0
973 -68 -71 -78 -83 0
1028 -68 -71 -78 -84 0
12 -68 -72 -76 -83 0
6945 -68 -72 -76 -84 0
364 -68 -72 -77 -83 0
2165 -68 -72 -77 -84 0
5226 -68 -72 -78 -83 0
39 -68 -72 -78 -84 0
687 -68 -73 -76 -83 0
1400 -68 -73 -76 -84 0
1176 -68 -73 -77 -83 0
844 -68 -73 -77 -84 0
402 -68 -73 -78 -83 0
2041 -68 -73 -78 -84 0
3358 -74 -69 -79 -85 0
2543 -74 -69 -79 -86 0
452 -74 -69 -79 -87 0
320 -74 -69 -80 -85 0
3297 -74 -69 -80 -86 0
3366 -74 -69 -80 -87 0
919 -74 -69 -81 -85 0
1835 -74 -69 -81 -86 0
2390 -74 -69 -81 -87 0
524 -74 -69 -82 -85 0
4435 -74 -69 -82 -86 0
1953 -74 -69 -82 -87 0
1427 -74 -70 -79 -85 0
1493 -74 -70 -79 -86 0
1874 -74 -70 -79 -87 0
1462 -74 -70 -80 -85 0
904 -74 -70 -80 -86 0
3283 -74 -70 -80 -87 0
2684 -74 -70 -81 -85 0
948 -74 -70 -81 -86 0
1617 -74 -70 -81 -87 0
2435 -74 -70 -82 -85 0
1411 -74 -70 -82 -86 0
1188 -74 -70 -82 -87 0
1816 -75 -69 -79 -85 0
1231 -75 -69 -79 -86 0
1787 -75 -69 -79 -87 0
918 -75 -69 -80 -85 0
2461 -75 -69 -80 -86 0
1790 -75 -69 -80 -87 0
1498 -75 -69 -81 -85 0
1645 -75 -69 -81 -86 0
1616 -75 -69 -81 -87 0
1019 -75 -69 -82 -85 0
1205 -75 -69 -82 -86 0
3781 -75 -69 -82 -87 0
1422 -75 -70 -79 -85 0
1662 -75 -70 -79 -86 0
1686 -75 -70 -79 -87 0
1453 -75 -70 -80 -85 0
706 -75 -70 -80 -86 0
5532 -75 -70 -80 -87 0
1584 -75 -70 -81 -85 0
1193 -75 -70 -81 -86 0
2126 -75 -70 -81 -87 0
2728 -75 -70 -82 -85 0
1352 -75 -70 -82 -86 0
1129 -75 -70 -82 -87 0
1990 -21 -76 -83 -88 0
2134 -21 -76 -83 -89 0
942 -21 -76 -83 -90 0
2386 -21 -76 -84 -88 0
583 -21 -76 -84 -89 0
2825 -21 -76 -84 -90 0
579 -21 -77 -83 -88 0
2226 -21 -77 -83 -89 0
3100 -21 -77 -83 -90 0
1582 -21 -77 -84 -88 0
2531 -21 -77 -84 -89 0
1020 -21 -77 -84 -90 0
3188 -21 -78 -83 -88 0
1226 -21 -78 -83 -89 0
1112 -21 -78 -83 -90 0
1034 -21 -78 -84 -88 0
2173 -21 -78 -84 -89 0
1786 -21 -78 -84 -90 0
2026 -22 -76 -83 -88 0
1225 -22 -76 -83 -89 0
1615 -22 -76 -83 -90 0
383 -22 -76 -84 -88 0
2918 -22 -76 -84 -89 0
3309 -22 -76 -84 -90 0
582 -22 -77 -83 -88 0
1974 -22 -77 -83 -89 0
3687 -22 -77 -83 -90 0
1772 -22 -77 -84 -88 0
581 -22 -77 -84 -89 0
4686 -22 -77 -84 -90 0
1008 -22 -78 -83 -88 0
6237 -22 -78 -83 -89 0
1031 -22 -78 -83 -90 0
1056 -22 -78 -84 -88 0
4060 -22 -78 -84 -89 0
1123 -22 -78 -84 -90 0
2418 -23 -76 -83 -88 0
829 -23 -76 -83 -89 0
2000 -23 -76 -83 -90 0
1677 -23 -76 -84 -88 0
1109 -23 -76 -84 -89 0
2159 -23 -76 -84 -90 0
1659 -23 -77 -83 -88 0
1709 -23 -77 -83 -89 0
1406 -23 -77 -83 -90 0
1020 -23 -77 -84 -88 0
1494 -23 -77 -84 -89 0
2721 -23 -77 -84 -90 0
1948 -23 -78 -83 -88 0
1126 -23 -78 -83 -89 0
1822 -23 -78 -83 -90 0
1414 -23 -78 -84 -88 0
1288 -23 -78 -84 -89 0
2217 -23 -78 -84 -90 0
3883 -24 -76 -83 -88 0
725 -24 -76 -83 -89 0
1612 -24 -76 -83 -90 0
2314 -24 -76 -84 -88 0
935 -24 -76 -84 -89 0
1859 -24 -76 -84 -90 0
807 -24 -77 -83 -88 0
1426 -24 -77 -83 -89 0
4157 -24 -77 -83 -90 0
1631 -24 -77 -84 -88 0
1648 -24 -77 -84 -89 0
1481 -24 -77 -84 -90 0
582 -24 -78 -83 -88 0
7184 -24 -78 -83 -89 0
1621 -24 -78 -83 -90 0
1255 -24 -78 -84 -88 0
1594 -24 -78 -84 -89 0
2001 -24 -78 -84 -90 0
8531 -17 -79 -85 0
9093 -17 -79 -86 0
677 -17 -79 -87 0
887 -17 -80 -85 0
824 -17 -80 -86 0
104 -17 -80 -87 0
111 -17 -81 -85 0
2746 -17 -81 -86 0
2674 -17 -81 -87 0
1129 -17 -82 -85 0
1245 -17 -82 -86 0
36 -17 -82 -87 0
839 -18 -79 -85 0
1279 -18 -79 -86 0
1031 -18 -79 -87 0
672 -18 -80 -85 0
940 -18 -80 -86 0
487 -18 -80 -87 0
1573 -18 -81 -85 0
339 -18 -81 -86 0
713 -18 -81 -87 0
1102 -18 -82 -85 0
3599 -18 -82 -86 0
548 -18 -82 -87 0
2413 -19 -79 -85 0
1349 -19 -79 -86 0
2368 -19 -79 -87 0
7077 -19 -80 -85 0
502 -19 -80 -86 0
1437 -19 -80 -87 0
1948 -19 -81 -85 0
6493 -19 -81 -86 0
1350 -19 -81 -87 0
1139 -19 -82 -85 0
822 -19 -82 -86 0
434 -19 -82 -87 0
739 -20 -79 -85 0
747 -20 -79 -86 0
1028 -20 -79 -87 0
1058 -20 -80 -85 0
428 -20 -80 -86 0
928 -20 -80 -87 0
1905 -20 -81 -85 0
1683 -20 -81 -86 0
1044 -20 -81 -87 0
4373 -20 -82 -85 0
1621 -20 -82 -86 0
1057 -20 -82 -87 0
1989 -88 -21 -91 0
774 -88 -21 -92 0
2614 -88 -21 -93 0
1319 -88 -22 -91 0
1002 -88 -22 -92 0
3320 -88 -22 -93 0
3955 -88 -23 -91 0
2485 -88 -23 -92 0
402 -88 -23 -93 0
534 -88 -24 -91 0
2916 -88 -24 -92 0
2499 -88 -24 -93 0
1873 -89 -21 -91 0
2750 -89 -21 -92 0
790 -89 -21 -93 0
931 -89 -22 -91 0
5312 -89 -22 -92 0
1151 -89 -22 -93 0
1141 -89 -23 -91 0
2058 -89 -23 -92 0
1707 -89 -23 -93 0
1130 -89 -24 -91 0
1616 -89 -24 -92 0
2206 -89 -24 -93 0
2019 -90 -21 -91 0
661 -90 -21 -92 0
3048 -90 -21 -93 0
2098 -90 -22 -91 0
1840 -90 -22 -92 0
1037 -90 -22 -93 0
1592 -90 -23 -91 0
1637 -90 -23 -92 0
1528 -90 -23 -93 0
435 -90 -24 -91 0
3967 -90 -24 -92 0
2347 -90 -24 -93 0
3130 -88 -94 0
1649 -88 -95 0
819 -88 -96 0
1857 -89 -94 0
1321 -89 -95 0
1628 -89 -96 0
741 -90 -94 0
3721 -90 -95 0
1617 -90 -96 0
4971 -36 -94 -91 -97 0
921 -36 -94 -91 -98 0
2311 -36 -94 -91 -99 0
2068 -36 -94 -91 -100 0
1686 -36 -94 -92 -97 0
3016 -36 -94 -92 -98 0
1748 -36 -94 -92 -99 0
1900 -36 -94 -92 -100 0
3296 -36 -94 -93 -97 0
929 -36 -94 -93 -98 0
5299 -36 -94 -93 -99 0
1524 -36 -94 -93 -100 0
2261 -36 -95 -91 -97 0
1052 -36 -95 -91 -98 0
3362 -36 -95 -91 -99 0
2240 -36 -95 -91 -100 0
2086 -36 -95 -92 -97 0
2104 -36 -95 -92 -98 0
2760 -36 -95 -92 -99 0
1380 -36 -95 -92 -100 0
2127 -36 -95 -93 -97 0
3273 -36 -95 -93 -98 0
1521 -36 -95 -93 -99 0
1648 -36 -95 -93 -100 0
897 -36 -96 -91 -97 0
4827 -36 -96 -91 -98 0
2001 -36 -96 -91 -99 0
2491 -36 -96 -91 -100 0
2130 -36 -96 -92 -97 0
1607 -36 -96 -92 -98 0
1434 -36 -96 -92 -99 0
3772 -36 -96 -92 -100 0
2917 -36 -96 -93 -97 0
1442 -36 -96 -93 -98 0
2908 -36 -96 -93 -99 0
1449 -36 -96 -93 -100 0
3185 -37 -94 -91 -97 0
1620 -37 -94 -91 -98 0
1666 -37 -94 -91 -99 0
2002 -37 -94 -91 -100 0
816 -37 -94 -92 -97 0
1406 -37 -94 -92 -98 0
5323 -37 -94 -92 -99 0
5089 -37 -94 -92 -100 0
3209 -37 -94 -93 -97 0
1192 -37 -94 -93 -98 0
1410 -37 -94 -93 -99 0
3682 -37 -94 -93 -100 0
1599 -37 -95 -91 -97 0
1549 -37 -95 -91 -98 0
1998 -37 -95 -91 -99 0
3682 -37 -95 -91 -100 0
1985 -37 -95 -92 -97 0
1699 -37 -95 -92 -98 0
2422 -37 -95 -92 -99 0
1984 -37 -95 -92 -100 0
1458 -37 -95 -93 -97 0
2199 -37 -95 -93 -98 0
2910 -37 -95 -93 -99 0
1810 -37 -95 -93 -100 0
2729 -37 -96 -91 -97 0
2217 -37 -96 -91 -98 0
1229 -37 -96 -91 -99 0
2269 -37 -96 -91 -100 0
1566 -37 -96 -92 -97 0
1451 -37 -96 -92 -98 0
1960 -37 -96 -92 -99 0
4671 -37 -96 -92 -100 0
4906 -37 -96 -93 -97 0
986 -37 -96 -93 -98 0
1796 -37 -96 -93 -99 0
2523 -37 -96 -93 -100 0
3663 -38 -94 -91 -97 0
1264 -38 -94 -91 -98 0
1950 -38 -94 -91 -99 0
2025 -38 -94 -91 -100 0
1950 -38 -94 -92 -97 0
1152 -38 -94 -92 -98 0
3419 -38 -94 -92 -99 0
2340 -38 -94 -92 -100 0
3874 -38 -94 -93 -97 0
1686 -38 -94 -93 -98 0
867 -38 -94 -93 -99 0
3780 -38 -94 -93 -100 0
3212 -38 -95 -91 -97 0
948 -38 -95 -91 -98 0
1692 -38 -95 -91 -99 0
3959 -38 -95 -91 -100 0
1278 -38 -95 -92 -97 0
1609 -38 -95 -92 -98 0
2909 -38 -95 -92 -99 0
2983 -38 -95 -92 -100 0
4676 -38 -95 -93 -97 0
796 -38 -95 -93 -98 0
2606 -38 -95 -93 -99 0
2181 -38 -95 -93 -100 0
4081 -38 -96 -91 -97 0
1791 -38 -96 -91 -98 0
1676 -38 -96 -91 -99 0
1560 -38 -96 -91 -100 0
2388 -38 -96 -92 -97 0
1980 -38 -96 -92 -98 0
1917 -38 -96 -92 -99 0
1782 -38 -96 -92 -100 0
1400 -38 -96 -93 -97 0
3042 -38 -96 -93 -98 0
1709 -38 -96 -93 -99 0
2367 -38 -96 -93 -100 0
812 -97 -36 -94 -101 0
1216 -97 -36 -94 -102 0
2530 -97 -36 -95 -101 0
274 -97 -36 -95 -102 0
1759 -97 -36 -96 -101 0
505 -97 -36 -96 -102 0
1603 -97 -37 -94 -101 0
576 -97 -37 -94 -102 0
1200 -97 -37 -95 -101 0
825 -97 -37 -95 -102 0
2044 -97 -37 -96 -101 0
401 -97 -37 -96 -102 0
4327 -97 -38 -94 -101 0
74 -97 -38 -94 -102 0
4175 -97 -38 -95 -101 0
82 -97 -38 -95 -102 0
3380 -97 -38 -96 -101 0
146 -97 -38 -96 -102 0
889 -98 -36 -94 -101 0
1120 -98 -36 -94 -102 0
1980 -98 -36 -95 -101 0
422 -98 -36 -95 -102 0
611 -98 -36 -96 -101 0
1535 -98 -36 -96 -102 0
878 -98 -37 -94 -101 0
1134 -98 -37 -94 -102 0
1402 -98 -37 -95 -101 0
686 -98 -37 -95 -102 0
889 -98 -37 -96 -101 0
1120 -98 -37 -96 -102 0
1489 -98 -38 -94 -101 0
636 -98 -38 -94 -102 0
21 -98 -38 -95 -101 0
6117 -98 -38 -95 -102 0
226 -98 -38 -96 -101 0
2788 -98 -38 -96 -102 0
762 -99 -36 -94 -101 0
1286 -99 -36 -94 -102 0
7781 -99 -36 -95 -101 0
7 -99 -36 -95 -102 0
2379 -99 -36 -96 -101 0
308 -99 -36 -96 -102 0
80 -99 -37 -94 -101 0
4213 -99 -37 -94 -102 0
287 -99 -37 -95 -101 0
2469 -99 -37 -95 -102 0
1036 -99 -37 -96 -101 0
965 -99 -37 -96 -102 0
151 -99 -38 -94 -101 0
3330 -99 -38 -94 -102 0
2374 -99 -38 -95 -101 0
309 -99 -38 -95 -102 0
977 -99 -38 -96 -101 0
1023 -99 -38 -96 -102 0
884 -100 -36 -94 -101 0
1126 -100 -36 -94 -102 0
1171 -100 -36 -95 -101 0
847 -100 -36 -95 -102 0
1257 -100 -36 -96 -101 0
782 -100 -36 -96 -102 0
2049 -100 -37 -94 -101 0
399 -100 -37 -94 -102 0
986 -100 -37 -95 -101 0
1015 -100 -37 -95 -102 0
782 -100 -37 -96 -101 0
1257 -100 -37 -96 -102 0
963 -100 -38 -94 -101 0
1038 -100 -38 -94 -102 0
1684 -100 -38 -95 -101 0
538 -100 -38 -95 -102 0
3488 -100 -38 -96 -101 0
135 -100 -38 -96 -102 0
2532 -97 -103 0
274 -97 -104 0
426 -98 -103 0
1966 -98 -104 0
1359 -99 -103 0
713 -99 -104 0
212 -100 -103 0
2874 -100 -104 0
1599 -103 -7 -101 -105 0
578 -103 -7 -101 -106 0
244 -103 -7 -102 -105 0
2685 -103 -7 -102 -106 0
1159 -103 -8 -101 -105 0
857 -103 -8 -101 -106 0
915 -103 -8 -102 -105 0
1091 -103 -8 -102 -106 0
1667 -103 -9 -101 -105 0
546 -103 -9 -101 -106 0
720 -103 -9 -102 -105 0
1348 -103 -9 -102 -106 0
390 -103 -10 -101 -105 0
2079 -103 -10 -101 -106 0
3143 -103 -10 -102 -105 0
173 -103 -10 -102 -106 0
866 -104 -7 -101 -105 0
1148 -104 -7 -101 -106 0
2495 -104 -7 -102 -105 0
282 -104 -7 -102 -106 0
2796 -104 -8 -101 -105 0
224 -104 -8 -101 -106 0
1364 -104 -8 -102 -105 0
709 -104 -8 -102 -106 0
385 -104 -9 -101 -105 0
2094 -104 -9 -101 -106 0
1424 -104 -9 -102 -105 0
673 -104 -9 -102 -106 0
22 -104 -10 -101 -105 0
6019 -104 -10 -101 -106 0
828 -104 -10 -102 -105 0
1195 -104 -10 -102 -106 0
994 -7 -103 -105 -107 0
1006 -7 -103 -105 -108 0
891 -7 -103 -106 -107 0
1118 -7 -103 -106 -108 0
80 -7 -104 -105 -107 0
4215 -7 -104 -105 -108 0
1800 -7 -104 -106 -107 0
488 -7 -104 -106 -108 0
1293 -8 -103 -105 -107 0
756 -8 -103 -105 -108 0
2843 -8 -103 -106 -107 0
216 -8 -103 -106 -108 0
5127 -8 -104 -105 -107 0
42 -8 -104 -105 -108 0
1023 -8 -104 -106 -107 0
977 -8 -104 -106 -108 0
844 -9 -103 -105 -107 0
1174 -9 -103 -105 -108 0
970 -9 -103 -106 -107 0
1031 -9 -103 -106 -108 0
2003 -9 -104 -105 -107 0
414 -9 -104 -105 -108 0
1228 -9 -104 -106 -107 0
803 -9 -104 -106 -108 0
1866 -10 -103 -105 -107 0
463 -10 -103 -105 -108 0
1592 -10 -103 -106 -107 0
582 -10 -103 -106 -108 0
888 -10 -104 -105 -107 0
1121 -10 -104 -105 -108 0
4755 -10 -104 -106 -107 0
54 -10 -104 -106 -108 0
346 -107 -28 -105 0
343 -107 -28 -106 0
118 -107 -29 -105 0
2364 -107 -29 -106 0
400 -107 -30 -105 0
151 -107 -30 -106 0
269 -107 -31 -105 0
712 -107 -31 -106 0
1260 -108 -28 -105 0
1126 -108 -28 -106 0
54 -108 -29 -105 0
1885 -108 -29 -106 0
2352 -108 -30 -105 0
991 -108 -30 -106 0
1106 -108 -31 -105 0
1225 -108 -31 -106 0
2183485 1 2 3 0
2183485 4 5 6 0
2183485 7 8 9 10 0
2183485 11 12 0
2183485 13 14 15 16 0
2183485 17 18 19 20 0
2183485 21 22 23 24 0
2183485 25 26 27 0
2183485 28 29 30 31 0
2183485 32 33 34 35 0
2183485 36 37 38 0
2183485 39 40 41 0
2183485 42 43 0
2183485 44 45 0
2183485 46 47 0
2183485 48 49 0
2183485 50 51 0
2183485 52 53 0
2183485 54 55 56 57 0
2183485 58 59 60 0
2183485 61 62 63 64 0
2183485 65 66 67 68 0
2183485 69 70 0
2183485 71 72 73 0
2183485 74 75 0
2183485 76 77 78 0
2183485 79 80 81 82 0
2183485 83 84 0
2183485 85 86 87 0
2183485 88 89 90 0
2183485 91 92 93 0
2183485 94 95 96 0
2183485 97 98 99 100 0
2183485 101 102 0
2183485 103 104 0
2183485 105 106 0
2183485 107 108 0
